n = 50;
C = 245;
w = [47,23,487,379,34,231,481,220,378,423,234,438,63,482,114,165,15,464,317,108,107,394,191,315,38,445,468,199,454,459,13,430,124,156,121,413,420,11,49,177,179,115,76,438,411,318,496,23,91,17];
p = [174,401,284,386,41,412,138,454,94,92,57,320,206,330,190,283,326,214,187,141,113,307,326,370,463,2,72,138,304,231,203,451,79,313,95,389,271,241,241,177,473,34,451,311,171,287,338,123,47,371];
